NAME 
ROWS
 N  OBJ
 L  R0      
 E  R1      
 E  R2      
 E  R3      
 E  R4      
 E  R5      
 E  R6      
 E  R7      
 E  R8      
 E  R9      
 E  R10     
COLUMNS
    MARKER    'MARKER'                 'INTORG'
    I0(8)     OBJ       -4
    I0(8)     R0        -85
    I0(8)     R1        1
    I0(8)     R2        1
    I0(8)     R3        3
    I0(8)     R4        17
    I0(8)     R5        5
    I0(8)     R6        4
    I0(8)     R10       1
    I1(6)     OBJ       3
    I1(6)     R0        -36
    I1(6)     R2        10
    I1(6)     R4        11
    I1(6)     R5        16
    I1(6)     R6        8
    I1(6)     R10       1
    I2(6)     OBJ       -189
    I2(6)     R0        199
    I2(6)     R2        11
    I2(6)     R3        17
    I2(6)     R4        14
    I2(6)     R5        4
    I2(6)     R10       1
    I3(4)     OBJ       -109
    I3(4)     R0        100
    I3(4)     R2        16
    I3(4)     R4        2
    I3(4)     R10       1
    I4(5)     OBJ       171
    I4(5)     R0        -34
    I4(5)     R3        8
    I4(5)     R4        5
    I4(5)     R6        11
    I4(5)     R10       1
    I5(4)     OBJ       103
    I5(4)     R0        -162
    I5(4)     R4        18
    I5(4)     R5        11
    I5(4)     R10       1
    MARKER    'MARKER'                 'INTEND'
    C6(7)     R0        1
    C6(7)     R2        12
    C6(7)     R3        16
    C6(7)     R4        1
    C6(7)     R7        13
    C6(7)     R8        7
    C6(7)     R9        5
    C7(5)     OBJ       -9
    C7(5)     R0        -5
    C7(5)     R1        19
    C7(5)     R5        12
    C7(5)     R6        1
    C7(5)     R8        18
    C8(7)     OBJ       -5
    C8(7)     R0        -10
    C8(7)     R1        2
    C8(7)     R2        17
    C8(7)     R5        15
    C8(7)     R6        13
    C8(7)     R7        9
    C8(7)     R8        11
    C9(8)     OBJ       -5
    C9(8)     R0        -7
    C9(8)     R1        17
    C9(8)     R2        18
    C9(8)     R3        5
    C9(8)     R4        1
    C9(8)     R5        2
    C9(8)     R7        18
    C9(8)     R8        9
    C10(1)    R1        1
    C11(1)    R2        1
    C12(1)    R3        1
    C13(1)    R4        1
    C14(1)    R5        1
    C15(1)    R6        1
    C16(1)    R7        1
    C17(1)    R8        1
    C18(1)    R9        1
    C19(1)    R10       1
RHS
    RHS1      R0        2.7762068965517250e+02
    RHS1      R1        68
    RHS1      R2        56
    RHS1      R3        58
    RHS1      R4        96
    RHS1      R5        52
    RHS1      R6        92
    RHS1      R7        71
    RHS1      R8        95
    RHS1      R9        51
    RHS1      R10       2
BOUNDS
 UP BND1      I0(8)     1
 UP BND1      I1(6)     1
 UP BND1      I2(6)     1
 UP BND1      I3(4)     1
 UP BND1      I4(5)     1
 UP BND1      I5(4)     1
ENDATA
